\ Model Calcul_Borne_Inf_L_copy
\ LP format - for model browsing. Use MPS format to capture full model detail.
Minimize
 
Subject To
 R4: C2 = 0
 R6: C4 = 0
 R7: C5 = 0
 R8: C6 = 0
 R9: C7 = 0
 R10: C8 = 0
 R11: C9 = 0
 R12: C10 = 0
 R13: C11 = 0
 R18: 0.2980379462242126 C2 + 0.0142634427174926 C3 + 0.2225854396820068 C4
   - 0.0885832607746124 C5 - 0.0239359438419342 C6 + 0.2955392003059387 C7
   + 0.2615632712841034 C8 + 0.1046060174703598 C9 + 0.036299005150795 C10
   + 0.2238863408565521 C11 + C16 = -0.0320858880877495
Bounds
 C2 free
 C3 >= 2.057548990249634
 C4 free
 C5 free
 C6 free
 C7 free
 C8 free
 C9 free
 C10 free
 C11 free
 C16 >= 0.8208625221252441
End
